<number of tasks>
20


<number of equipment>
5


<cycle time>
1000


<investment costs>
1,10798
2,13398
3,26057
4,19090
5,21886


<task times>
1,-1,-1,119,149,160
2,-1,350,-1,241,-1
3,-1,270,-1,234,-1
4,276,-1,113,198,-1
5,346,-1,95,212,-1
6,262,-1,152,235,-1
7,392,-1,126,293,-1
8,-1,-1,116,214,171
9,220,-1,86,145,-1
10,281,-1,100,136,-1
11,476,-1,114,477,-1
12,-1,-1,234,242,189
13,-1,-1,138,300,221
14,-1,-1,169,242,210
15,-1,355,-1,297,-1
16,-1,-1,208,322,206
17,-1,-1,156,281,306
18,216,-1,73,181,-1
19,411,-1,133,299,-1
20,203,-1,114,222,-1


<precedence relations>
1,4
1,5
2,6
4,9
5,7
5,8
5,10
7,12
8,13
9,14
10,11
10,15
11,16
12,17
13,17
14,19
15,18
15,20


<task types>
1,2
2,1
3,1
4,3
5,3
6,3
7,3
8,2
9,3
10,3
11,3
12,2
13,2
14,2
15,1
16,2
17,2
18,3
19,3
20,3


<line depot>
1,0
2,1
3,2
4,2
5,0


<processing costs>
1,7200
2,7200
3,14400
4,21600
5,7200


<saving costs>
1,1079
2,1339
3,2605
4,1909
5,2188


<end>
